jobs  (incl. supersource/sink ):	102
RESOURCES
- renewable                 : 4 R
- nonrenewable              : 2 N
- doubly constrained        : 0 D
************************************************************************
PRECEDENCE RELATIONS:
jobnr.    #modes  #successors   successors
1	1	21		2 3 4 5 6 7 8 10 11 12 14 15 16 17 22 23 26 29 30 35 44 
2	6	8		38 33 31 27 25 18 13 9 
3	6	12		50 49 47 46 45 43 42 38 27 25 24 19 
4	6	12		50 49 46 43 42 38 34 32 31 27 25 24 
5	6	9		61 47 45 43 38 32 27 25 13 
6	6	11		59 50 49 46 43 40 38 36 33 27 18 
7	6	12		71 59 52 50 49 40 37 36 33 31 28 27 
8	6	10		61 59 50 49 47 45 37 32 27 24 
9	6	10		59 53 50 49 43 41 40 39 36 20 
10	6	9		75 49 47 45 41 38 37 34 24 
11	6	9		71 59 58 53 49 41 36 31 21 
12	6	6		50 47 32 27 25 20 
13	6	9		75 59 58 50 49 46 41 37 24 
14	6	8		71 61 59 49 47 45 41 25 
15	6	7		71 68 58 40 39 37 27 
16	6	11		75 71 61 59 58 57 53 43 41 39 37 
17	6	5		71 54 50 40 25 
18	6	13		75 74 72 71 68 61 58 57 54 52 51 39 37 
19	6	9		71 64 63 58 57 55 41 37 36 
20	6	14		75 74 71 68 64 63 61 58 57 55 54 51 45 37 
21	6	9		75 74 61 54 51 50 45 39 37 
22	6	13		75 73 72 71 68 63 61 55 54 52 50 48 45 
23	6	10		72 71 64 63 61 58 55 52 50 37 
24	6	8		71 68 57 53 52 51 48 39 
25	6	6		75 68 57 53 39 37 
26	6	11		83 74 72 71 68 65 59 58 56 51 39 
27	6	8		75 70 64 63 57 53 48 41 
28	6	6		68 58 56 53 51 39 
29	6	14		83 75 74 73 72 70 68 65 64 62 61 59 55 48 
30	6	11		83 82 74 70 65 63 58 57 56 54 51 
31	6	13		83 82 77 70 68 66 64 63 62 61 60 56 55 
32	6	12		100 83 82 77 73 72 67 64 58 57 56 51 
33	6	12		101 82 81 77 70 67 64 62 60 57 56 53 
34	6	11		77 74 73 72 70 67 61 59 58 56 51 
35	6	11		82 71 70 69 67 63 62 59 58 56 53 
36	6	14		83 82 81 78 77 75 73 70 69 67 66 62 61 56 
37	6	8		83 81 78 73 70 65 62 48 
38	6	12		101 96 83 82 81 78 73 72 70 62 60 57 
39	6	11		101 93 82 77 73 70 69 66 64 63 55 
40	6	10		83 82 78 67 66 63 62 61 60 56 
41	6	7		99 83 77 74 72 54 51 
42	6	12		98 93 82 78 77 75 74 70 67 66 65 63 
43	6	11		101 97 93 82 77 76 67 66 65 64 60 
44	6	5		97 83 78 72 48 
45	6	12		101 97 96 94 83 81 78 77 76 66 60 56 
46	6	12		101 98 96 93 83 82 78 77 76 69 66 65 
47	6	12		99 98 96 94 82 78 76 73 69 68 67 66 
48	6	9		101 96 94 82 77 76 66 60 56 
49	6	10		99 94 93 78 77 76 72 70 69 66 
50	6	5		101 81 70 62 57 
51	6	9		101 97 96 95 92 80 78 62 60 
52	6	17		101 98 97 96 95 94 93 92 91 88 87 86 83 81 80 79 77 
53	6	12		100 97 93 92 91 87 85 83 78 76 74 72 
54	6	9		100 94 93 88 81 78 76 69 67 
55	6	9		100 99 94 90 89 88 78 76 67 
56	6	12		99 98 95 93 92 91 90 88 87 86 80 79 
57	6	8		99 93 91 90 89 87 84 66 
58	6	6		93 91 89 81 79 66 
59	6	9		98 97 92 91 88 87 86 85 79 
60	6	5		98 90 88 86 69 
61	6	8		101 97 96 94 93 87 85 79 
62	6	6		94 93 91 87 85 76 
63	6	5		100 91 85 81 76 
64	6	5		98 96 86 80 78 
65	6	7		100 99 94 92 90 89 87 
66	6	5		95 92 88 86 80 
67	6	5		92 87 86 85 79 
68	6	5		93 90 89 86 85 
69	6	4		91 89 85 79 
70	6	4		100 97 87 84 
71	6	4		97 94 86 85 
72	6	3		90 89 79 
73	6	3		87 85 79 
74	6	3		96 89 88 
75	6	3		95 88 85 
76	6	2		86 79 
77	6	2		90 84 
78	6	1		79 
79	6	1		84 
80	6	1		85 
81	6	1		84 
82	6	1		89 
83	6	1		90 
84	6	1		102 
85	6	1		102 
86	6	1		102 
87	6	1		102 
88	6	1		102 
89	6	1		102 
90	6	1		102 
91	6	1		102 
92	6	1		102 
93	6	1		102 
94	6	1		102 
95	6	1		102 
96	6	1		102 
97	6	1		102 
98	6	1		102 
99	6	1		102 
100	6	1		102 
101	6	1		102 
102	1	0		
************************************************************************
REQUESTS/DURATIONS
jobnr.	mode	dur	R1	R2	R3	R4	N1	N2	
------------------------------------------------------------------------
1	1	0	0	0	0	0	0	0	
2	1	2	4	2	3	5	24	10	
	2	9	3	2	2	4	23	10	
	3	13	3	2	2	4	21	9	
	4	22	3	1	1	4	19	8	
	5	23	3	1	1	4	18	5	
	6	30	3	1	1	4	15	5	
3	1	2	3	5	2	4	12	10	
	2	3	2	4	2	3	12	9	
	3	4	2	4	2	3	12	8	
	4	9	2	3	2	3	11	7	
	5	20	1	3	2	2	10	7	
	6	21	1	3	2	1	10	6	
4	1	5	5	4	1	3	17	8	
	2	6	4	4	1	2	12	8	
	3	12	4	4	1	2	11	8	
	4	19	4	4	1	2	7	8	
	5	26	4	4	1	1	4	8	
	6	28	4	4	1	1	4	7	
5	1	2	5	1	2	5	18	12	
	2	8	3	1	2	5	12	12	
	3	9	3	1	2	5	12	11	
	4	10	2	1	1	5	7	11	
	5	18	1	1	1	5	3	11	
	6	24	1	1	1	5	1	10	
6	1	6	5	1	1	5	9	26	
	2	11	4	1	1	4	8	24	
	3	15	4	1	1	4	7	22	
	4	16	4	1	1	4	5	18	
	5	20	4	1	1	3	5	17	
	6	22	4	1	1	3	3	15	
7	1	4	2	4	4	4	18	7	
	2	13	2	3	4	4	18	7	
	3	15	2	3	3	4	17	7	
	4	16	2	3	3	4	16	7	
	5	20	2	2	1	4	14	7	
	6	29	2	2	1	4	14	6	
8	1	2	3	3	2	2	7	15	
	2	3	3	2	2	1	6	14	
	3	4	3	2	2	1	5	12	
	4	11	3	2	2	1	3	12	
	5	17	3	2	2	1	2	10	
	6	20	3	2	2	1	1	9	
9	1	7	4	3	3	5	9	22	
	2	14	4	2	2	4	8	22	
	3	15	4	2	2	4	8	19	
	4	21	4	2	2	4	7	15	
	5	22	3	2	2	4	6	15	
	6	28	3	2	2	4	6	10	
10	1	11	3	1	3	4	8	15	
	2	12	2	1	2	3	8	12	
	3	13	2	1	2	3	8	10	
	4	14	2	1	1	3	8	10	
	5	18	2	1	1	2	7	6	
	6	30	2	1	1	2	7	5	
11	1	14	2	3	3	5	20	12	
	2	16	2	3	2	4	19	12	
	3	19	2	3	2	4	19	11	
	4	20	2	2	2	3	19	12	
	5	22	2	2	2	3	19	11	
	6	25	2	1	2	3	19	11	
12	1	5	5	5	3	3	18	10	
	2	13	4	4	3	3	16	10	
	3	18	4	4	3	3	15	8	
	4	19	4	4	2	3	14	7	
	5	24	4	4	2	3	11	6	
	6	29	4	4	2	3	11	5	
13	1	1	5	4	4	5	8	24	
	2	4	4	3	4	3	7	19	
	3	12	4	3	4	3	6	17	
	4	14	3	2	3	3	5	12	
	5	18	3	1	3	1	4	9	
	6	21	2	1	3	1	4	7	
14	1	1	4	2	4	4	28	13	
	2	2	4	2	4	3	25	12	
	3	8	4	2	3	3	21	11	
	4	16	4	1	2	3	18	10	
	5	19	4	1	1	2	16	9	
	6	29	4	1	1	2	11	8	
15	1	1	5	3	2	5	23	24	
	2	13	4	3	2	4	20	22	
	3	19	3	3	2	4	16	22	
	4	20	3	3	2	4	15	22	
	5	22	3	3	2	3	12	21	
	6	29	2	3	2	3	12	20	
16	1	1	3	4	3	3	13	20	
	2	7	3	4	3	3	13	17	
	3	14	3	4	3	3	13	13	
	4	15	2	4	3	3	12	12	
	5	22	2	4	3	2	12	9	
	6	25	2	4	3	2	12	5	
17	1	3	3	3	5	4	29	27	
	2	6	3	3	5	4	27	27	
	3	8	3	3	5	4	26	27	
	4	15	3	3	5	4	25	27	
	5	21	3	3	5	4	25	26	
	6	24	3	3	5	4	23	27	
18	1	4	2	4	4	4	25	23	
	2	14	2	3	4	4	25	23	
	3	16	2	3	4	4	23	23	
	4	24	2	3	4	4	23	22	
	5	27	2	2	4	3	22	22	
	6	28	2	2	4	3	20	21	
19	1	2	3	1	3	4	17	18	
	2	11	3	1	2	4	13	13	
	3	17	3	1	2	4	10	10	
	4	25	3	1	2	4	8	9	
	5	28	3	1	1	4	5	3	
	6	30	3	1	1	4	4	3	
20	1	2	5	4	4	2	21	4	
	2	7	5	4	3	2	21	4	
	3	12	5	4	3	2	17	3	
	4	13	5	4	3	2	17	2	
	5	20	5	3	3	1	15	3	
	6	22	5	3	3	1	12	2	
21	1	1	1	2	3	5	9	24	
	2	4	1	2	3	4	8	22	
	3	6	1	2	3	4	7	20	
	4	11	1	2	3	4	7	17	
	5	14	1	2	3	4	7	13	
	6	15	1	2	3	4	6	13	
22	1	2	4	2	4	5	18	26	
	2	6	4	2	4	4	14	21	
	3	8	3	2	4	4	14	14	
	4	15	3	2	4	3	10	13	
	5	17	3	2	3	3	8	9	
	6	24	2	2	3	3	7	5	
23	1	7	4	5	1	1	12	22	
	2	8	4	4	1	1	11	20	
	3	11	4	3	1	1	10	20	
	4	13	4	3	1	1	10	19	
	5	20	4	2	1	1	9	19	
	6	28	4	1	1	1	8	18	
24	1	5	3	2	5	3	23	25	
	2	9	3	1	4	3	21	24	
	3	18	3	1	4	3	21	23	
	4	23	2	1	3	3	20	24	
	5	25	1	1	2	2	18	24	
	6	27	1	1	2	2	18	23	
25	1	3	5	4	4	4	19	28	
	2	4	4	4	4	3	19	26	
	3	5	4	3	3	2	14	26	
	4	10	4	3	3	2	13	23	
	5	16	4	1	2	1	12	22	
	6	26	4	1	2	1	7	20	
26	1	2	5	4	5	5	24	24	
	2	9	4	4	4	5	20	21	
	3	12	4	4	4	5	14	18	
	4	24	3	4	3	5	12	17	
	5	26	3	4	3	5	7	12	
	6	29	3	4	2	5	3	8	
27	1	7	2	2	5	4	12	29	
	2	8	1	2	4	4	12	28	
	3	10	1	2	4	4	12	27	
	4	11	1	2	4	4	11	27	
	5	12	1	2	4	4	11	26	
	6	18	1	2	4	4	10	25	
28	1	9	4	2	4	4	17	23	
	2	12	4	2	3	4	17	21	
	3	16	4	2	3	4	16	16	
	4	23	4	2	2	4	15	12	
	5	25	3	2	1	4	14	9	
	6	29	3	2	1	4	14	4	
29	1	13	5	3	4	2	23	15	
	2	16	4	3	3	1	20	15	
	3	22	4	3	3	1	17	13	
	4	27	3	3	3	1	12	12	
	5	28	2	2	2	1	9	9	
	6	30	2	2	2	1	8	7	
30	1	4	5	5	2	1	26	2	
	2	6	4	4	2	1	25	2	
	3	11	4	3	2	1	23	2	
	4	21	4	3	2	1	23	1	
	5	29	4	1	2	1	22	2	
	6	30	4	1	2	1	20	2	
31	1	1	5	3	4	4	11	6	
	2	2	4	3	3	4	9	6	
	3	3	4	2	3	3	8	5	
	4	11	4	2	3	2	5	5	
	5	22	4	2	2	1	5	5	
	6	23	4	1	2	1	4	4	
32	1	3	4	2	5	4	7	27	
	2	8	3	2	3	3	7	24	
	3	14	3	2	3	3	7	22	
	4	22	3	2	3	3	7	18	
	5	24	2	2	1	3	7	17	
	6	26	2	2	1	3	7	14	
33	1	2	4	4	5	1	15	14	
	2	8	4	3	4	1	15	13	
	3	12	4	3	3	1	15	13	
	4	13	4	3	3	1	15	12	
	5	19	4	3	2	1	15	13	
	6	27	4	3	1	1	15	13	
34	1	4	4	4	1	4	16	15	
	2	7	4	3	1	4	14	14	
	3	24	4	3	1	4	13	12	
	4	25	4	3	1	4	13	11	
	5	27	4	2	1	4	12	11	
	6	29	4	2	1	4	10	9	
35	1	4	5	5	4	5	28	3	
	2	6	4	4	3	4	26	2	
	3	7	4	3	3	4	25	2	
	4	18	3	2	2	4	22	2	
	5	24	3	1	2	4	19	2	
	6	30	2	1	1	4	18	2	
36	1	1	4	4	4	2	30	16	
	2	6	4	3	4	2	25	17	
	3	7	4	3	4	2	25	16	
	4	22	3	2	3	1	21	16	
	5	24	3	2	3	1	20	15	
	6	26	3	2	3	1	17	15	
37	1	9	3	4	3	5	12	27	
	2	10	2	4	2	4	11	26	
	3	14	2	4	2	3	11	26	
	4	18	2	4	1	2	11	26	
	5	28	1	4	1	2	9	26	
	6	30	1	4	1	1	9	26	
38	1	2	1	1	4	3	26	22	
	2	3	1	1	4	3	24	21	
	3	4	1	1	4	3	22	18	
	4	8	1	1	3	3	20	16	
	5	29	1	1	2	3	18	16	
	6	30	1	1	2	3	15	12	
39	1	8	2	3	4	4	25	29	
	2	15	2	2	3	3	21	29	
	3	16	2	2	3	3	17	29	
	4	22	2	1	2	3	11	28	
	5	24	2	1	1	3	6	28	
	6	30	2	1	1	3	4	27	
40	1	2	5	4	4	4	20	27	
	2	4	4	4	4	4	15	20	
	3	5	3	4	4	4	15	20	
	4	9	2	4	4	4	10	12	
	5	17	1	4	4	4	7	7	
	6	21	1	4	4	4	5	3	
41	1	11	3	4	5	5	16	18	
	2	12	2	3	4	4	14	16	
	3	23	2	3	3	3	11	15	
	4	24	2	2	3	3	9	12	
	5	26	2	2	1	1	8	10	
	6	29	2	1	1	1	6	9	
42	1	12	2	1	4	4	21	22	
	2	16	1	1	4	4	20	18	
	3	19	1	1	4	4	19	17	
	4	24	1	1	3	3	18	11	
	5	26	1	1	2	3	16	8	
	6	27	1	1	2	3	15	7	
43	1	5	5	2	4	2	16	6	
	2	18	4	2	4	2	15	5	
	3	20	4	2	4	2	13	5	
	4	25	4	2	3	2	12	4	
	5	26	3	1	3	2	12	3	
	6	27	3	1	3	2	11	1	
44	1	1	4	1	4	4	20	13	
	2	11	3	1	3	3	19	11	
	3	14	3	1	3	2	19	10	
	4	18	3	1	3	2	19	6	
	5	19	3	1	2	1	19	4	
	6	27	3	1	2	1	19	3	
45	1	1	5	3	4	4	18	19	
	2	5	4	3	4	3	18	18	
	3	7	3	3	4	3	16	15	
	4	14	2	3	4	3	14	13	
	5	25	2	3	4	3	11	12	
	6	26	1	3	4	3	11	9	
46	1	3	4	5	4	4	26	22	
	2	13	3	5	3	3	22	20	
	3	14	3	5	3	3	19	20	
	4	22	3	5	3	3	17	15	
	5	26	1	5	3	2	16	12	
	6	27	1	5	3	1	10	12	
47	1	1	1	3	5	4	27	27	
	2	6	1	2	4	3	22	23	
	3	9	1	2	4	3	20	20	
	4	11	1	2	3	3	19	20	
	5	21	1	2	3	3	15	17	
	6	25	1	2	2	3	12	11	
48	1	7	1	4	5	3	28	29	
	2	11	1	3	4	3	26	28	
	3	13	1	3	4	3	26	25	
	4	15	1	2	4	3	24	23	
	5	22	1	2	4	2	21	22	
	6	27	1	2	4	2	20	19	
49	1	2	4	4	3	5	28	29	
	2	8	4	4	3	4	28	26	
	3	19	4	3	3	4	27	25	
	4	20	4	2	2	3	26	23	
	5	21	4	1	2	3	25	22	
	6	26	4	1	2	3	24	21	
50	1	8	4	5	4	4	14	8	
	2	13	3	5	4	4	14	8	
	3	17	3	5	4	4	13	8	
	4	18	3	5	4	3	12	8	
	5	26	3	5	3	2	10	7	
	6	29	3	5	3	2	10	6	
51	1	6	3	3	4	2	18	19	
	2	8	3	3	3	1	16	19	
	3	9	3	3	3	1	13	15	
	4	12	2	3	2	1	13	13	
	5	15	1	2	1	1	9	11	
	6	24	1	2	1	1	9	10	
52	1	9	2	4	1	4	20	25	
	2	10	2	3	1	4	16	24	
	3	12	2	3	1	4	15	23	
	4	23	2	2	1	4	13	20	
	5	29	2	2	1	3	12	20	
	6	30	2	2	1	3	10	17	
53	1	1	5	5	1	3	28	25	
	2	7	5	5	1	3	23	21	
	3	10	5	5	1	3	19	21	
	4	11	5	5	1	3	14	19	
	5	27	5	5	1	3	11	16	
	6	28	5	5	1	3	4	14	
54	1	4	5	2	4	4	15	30	
	2	7	4	1	3	3	12	28	
	3	8	4	1	3	2	10	27	
	4	23	3	1	2	2	10	26	
	5	26	3	1	2	2	7	25	
	6	27	3	1	1	1	6	24	
55	1	3	3	2	4	1	21	21	
	2	11	3	1	3	1	21	20	
	3	12	3	1	2	1	16	20	
	4	13	3	1	2	1	12	20	
	5	16	3	1	1	1	12	19	
	6	27	3	1	1	1	9	19	
56	1	3	3	5	5	3	16	15	
	2	10	3	4	4	3	15	13	
	3	12	3	4	4	3	15	12	
	4	15	3	4	4	3	15	9	
	5	23	3	4	3	3	14	8	
	6	29	3	4	3	3	14	7	
57	1	1	5	3	3	5	23	16	
	2	4	4	2	3	4	18	12	
	3	8	4	2	3	4	16	11	
	4	18	3	1	3	3	12	6	
	5	22	2	1	3	3	10	3	
	6	24	2	1	3	3	5	2	
58	1	2	4	3	4	3	8	26	
	2	9	4	3	4	3	7	25	
	3	14	4	3	3	3	7	25	
	4	22	4	3	3	2	6	24	
	5	23	4	3	2	2	6	24	
	6	30	4	3	2	1	6	23	
59	1	6	5	4	4	4	8	15	
	2	11	4	4	3	4	6	14	
	3	16	4	4	3	4	5	14	
	4	17	4	4	3	4	4	13	
	5	18	3	4	3	4	3	13	
	6	19	3	4	3	4	2	13	
60	1	6	5	3	3	3	26	17	
	2	9	4	3	3	3	19	15	
	3	16	4	2	3	3	14	12	
	4	23	4	2	2	2	14	10	
	5	28	4	1	2	1	7	4	
	6	29	4	1	2	1	4	4	
61	1	3	2	2	5	1	29	27	
	2	6	2	2	4	1	21	27	
	3	20	2	2	3	1	19	25	
	4	24	2	2	3	1	17	25	
	5	25	1	2	2	1	10	23	
	6	30	1	2	2	1	8	22	
62	1	4	4	4	5	3	8	18	
	2	7	4	4	4	3	8	18	
	3	8	3	4	4	3	8	18	
	4	9	3	4	3	3	8	18	
	5	12	2	4	3	3	8	18	
	6	21	2	4	3	3	8	17	
63	1	3	3	4	3	3	17	24	
	2	14	3	4	3	3	17	23	
	3	24	3	4	3	3	16	19	
	4	27	3	3	3	3	14	17	
	5	28	3	2	3	2	12	14	
	6	30	3	2	3	2	12	9	
64	1	6	2	1	3	4	29	17	
	2	7	1	1	3	3	26	17	
	3	17	1	1	3	3	24	15	
	4	27	1	1	3	3	20	15	
	5	28	1	1	2	2	18	13	
	6	29	1	1	2	2	16	13	
65	1	5	5	4	3	4	16	21	
	2	6	4	3	3	4	15	21	
	3	12	3	2	3	4	15	16	
	4	14	2	2	3	4	15	14	
	5	25	1	2	2	4	14	10	
	6	26	1	1	2	4	14	10	
66	1	1	4	5	3	3	19	29	
	2	2	4	5	3	2	18	25	
	3	5	3	5	3	2	14	22	
	4	11	3	5	3	2	14	18	
	5	17	3	5	3	1	10	16	
	6	18	2	5	3	1	8	13	
67	1	10	5	2	4	4	17	5	
	2	20	4	2	4	3	16	5	
	3	21	3	2	4	3	16	5	
	4	25	2	2	4	2	16	5	
	5	26	1	2	4	1	16	5	
	6	27	1	2	4	1	16	4	
68	1	3	4	3	4	3	17	23	
	2	4	3	3	4	3	15	19	
	3	5	3	3	4	3	15	17	
	4	17	3	3	4	2	15	14	
	5	23	3	3	4	1	14	10	
	6	26	3	3	4	1	13	6	
69	1	5	2	4	4	4	14	12	
	2	8	1	4	4	4	12	11	
	3	9	1	4	3	4	11	10	
	4	21	1	3	2	4	7	6	
	5	23	1	2	2	3	3	6	
	6	30	1	2	1	3	1	2	
70	1	2	5	2	5	4	14	14	
	2	7	3	2	5	4	12	12	
	3	11	3	2	5	4	8	11	
	4	12	2	2	5	4	7	10	
	5	15	1	2	5	3	6	9	
	6	27	1	2	5	3	2	9	
71	1	13	3	1	3	4	18	21	
	2	14	3	1	3	3	17	20	
	3	15	3	1	3	3	16	20	
	4	17	2	1	2	3	15	20	
	5	24	2	1	2	2	14	19	
	6	29	2	1	1	2	13	19	
72	1	5	4	2	4	4	26	15	
	2	10	4	2	4	4	26	12	
	3	11	4	2	4	4	23	9	
	4	13	4	2	4	4	19	6	
	5	25	4	1	4	4	16	6	
	6	26	4	1	4	4	9	2	
73	1	9	4	4	3	4	12	23	
	2	12	3	3	3	3	12	23	
	3	16	3	3	3	3	12	20	
	4	18	2	3	3	2	12	18	
	5	20	2	3	3	2	11	16	
	6	22	2	3	3	2	11	15	
74	1	9	4	3	3	5	17	19	
	2	13	3	3	2	4	17	18	
	3	14	2	3	2	4	17	16	
	4	19	2	3	2	4	17	15	
	5	21	1	3	2	4	17	14	
	6	25	1	3	2	4	17	13	
75	1	3	4	2	2	2	21	29	
	2	9	4	1	2	2	20	26	
	3	15	4	1	2	2	19	24	
	4	22	3	1	2	2	17	22	
	5	26	3	1	2	2	17	21	
	6	27	3	1	2	2	16	19	
76	1	11	5	2	4	4	11	17	
	2	14	4	2	4	4	11	16	
	3	20	4	2	4	4	11	15	
	4	26	3	2	4	4	11	15	
	5	27	3	1	4	4	11	13	
	6	28	2	1	4	4	11	12	
77	1	3	4	4	5	4	9	21	
	2	7	4	4	5	4	8	21	
	3	8	4	4	5	4	8	20	
	4	18	3	3	5	4	7	21	
	5	22	3	3	5	4	6	21	
	6	24	3	3	5	4	6	20	
78	1	1	4	3	3	3	6	25	
	2	4	4	3	3	3	6	24	
	3	5	4	3	2	3	6	18	
	4	11	4	3	2	3	5	15	
	5	17	3	3	2	3	5	7	
	6	19	3	3	1	3	4	3	
79	1	15	5	2	2	4	9	2	
	2	16	4	1	2	4	8	2	
	3	17	3	1	2	4	6	2	
	4	18	3	1	2	4	5	1	
	5	20	2	1	2	4	3	1	
	6	23	1	1	2	4	1	1	
80	1	2	2	5	1	3	20	14	
	2	7	2	4	1	3	20	13	
	3	12	2	4	1	2	20	9	
	4	16	2	3	1	2	20	7	
	5	17	2	3	1	1	19	3	
	6	25	2	3	1	1	19	2	
81	1	4	3	3	4	1	17	30	
	2	5	2	3	3	1	17	23	
	3	6	2	3	3	1	15	21	
	4	16	2	3	3	1	14	19	
	5	22	1	2	3	1	11	15	
	6	23	1	2	3	1	10	14	
82	1	9	2	2	3	4	23	14	
	2	15	1	1	3	4	21	12	
	3	17	1	1	3	4	19	11	
	4	19	1	1	3	4	13	10	
	5	27	1	1	3	4	9	8	
	6	28	1	1	3	4	5	6	
83	1	6	5	2	1	3	13	27	
	2	12	5	1	1	3	13	25	
	3	13	5	1	1	3	13	23	
	4	14	5	1	1	2	12	23	
	5	21	5	1	1	2	12	21	
	6	26	5	1	1	1	12	20	
84	1	11	5	3	3	2	22	27	
	2	13	5	3	3	1	21	27	
	3	14	5	2	3	1	20	27	
	4	20	5	2	3	1	20	26	
	5	21	5	1	3	1	19	26	
	6	30	5	1	3	1	18	26	
85	1	2	4	2	3	2	7	23	
	2	4	3	1	2	2	6	19	
	3	11	3	1	2	2	5	16	
	4	13	2	1	1	2	5	11	
	5	23	1	1	1	1	5	8	
	6	29	1	1	1	1	4	7	
86	1	4	4	5	3	3	27	6	
	2	5	4	4	3	3	20	5	
	3	8	4	4	3	3	16	5	
	4	15	3	4	3	3	15	4	
	5	18	3	4	2	3	9	4	
	6	25	3	4	2	3	5	3	
87	1	2	3	4	4	5	12	5	
	2	11	3	4	4	3	12	4	
	3	13	3	4	3	3	12	3	
	4	17	3	3	3	3	12	2	
	5	19	3	3	1	2	12	1	
	6	22	3	3	1	1	12	1	
88	1	2	3	2	3	3	9	23	
	2	7	3	2	3	2	9	23	
	3	19	3	2	2	2	9	21	
	4	24	3	2	2	2	9	20	
	5	26	3	2	2	2	9	19	
	6	27	3	2	1	2	9	18	
89	1	5	3	3	2	5	8	17	
	2	10	3	3	2	4	8	16	
	3	16	3	2	2	4	7	15	
	4	19	3	2	2	4	4	15	
	5	22	2	1	2	3	4	14	
	6	25	2	1	2	3	1	13	
90	1	8	4	4	4	1	10	16	
	2	15	4	4	4	1	10	15	
	3	17	4	4	4	1	9	15	
	4	21	4	3	4	1	8	14	
	5	22	4	2	3	1	6	13	
	6	27	4	2	3	1	6	12	
91	1	10	3	5	4	3	19	15	
	2	15	3	4	4	3	15	13	
	3	17	3	4	4	3	14	11	
	4	20	2	3	3	2	11	9	
	5	25	2	2	3	2	5	8	
	6	26	2	2	3	2	5	5	
92	1	16	3	3	3	5	22	7	
	2	17	3	2	2	4	19	7	
	3	21	3	2	2	4	17	7	
	4	26	3	2	2	4	14	7	
	5	29	3	2	2	4	10	7	
	6	30	3	2	2	4	6	7	
93	1	1	3	3	5	5	26	27	
	2	4	2	2	5	5	23	25	
	3	14	2	2	5	5	21	22	
	4	20	2	2	5	5	19	20	
	5	21	1	2	5	5	16	20	
	6	26	1	2	5	5	13	18	
94	1	7	2	5	5	3	21	25	
	2	10	2	4	5	3	20	23	
	3	11	2	3	5	3	16	20	
	4	12	2	2	5	2	12	18	
	5	15	2	2	5	2	12	17	
	6	21	2	1	5	1	9	15	
95	1	4	4	4	5	4	21	15	
	2	9	3	4	5	3	20	12	
	3	18	3	4	5	3	19	10	
	4	26	2	4	5	3	19	6	
	5	29	2	4	5	3	18	3	
	6	30	2	4	5	3	17	2	
96	1	3	4	3	3	5	28	20	
	2	8	4	3	2	4	26	20	
	3	10	4	3	2	4	23	19	
	4	22	4	3	1	4	19	19	
	5	26	4	3	1	4	18	19	
	6	30	4	3	1	4	14	18	
97	1	5	5	4	4	4	11	22	
	2	11	4	4	4	4	10	22	
	3	12	4	4	3	3	10	20	
	4	19	3	4	3	3	9	16	
	5	28	2	4	2	3	9	15	
	6	30	2	4	2	2	9	13	
98	1	7	3	2	3	5	17	28	
	2	12	3	1	3	5	17	26	
	3	17	3	1	3	5	11	25	
	4	23	3	1	3	5	10	23	
	5	25	3	1	3	5	5	20	
	6	26	3	1	3	5	2	19	
99	1	4	5	5	3	3	29	24	
	2	5	5	4	2	2	27	24	
	3	6	5	3	2	2	24	23	
	4	12	5	3	2	2	21	21	
	5	15	5	3	1	2	20	20	
	6	23	5	2	1	2	16	20	
100	1	6	4	4	2	2	18	25	
	2	14	4	3	2	2	17	20	
	3	16	4	3	2	2	16	18	
	4	18	4	3	1	2	15	16	
	5	22	3	3	1	2	14	11	
	6	28	3	3	1	2	14	7	
101	1	10	2	4	5	3	25	26	
	2	19	1	4	4	3	24	23	
	3	20	1	4	4	3	21	20	
	4	25	1	4	3	3	21	17	
	5	27	1	4	3	3	18	12	
	6	29	1	4	3	3	18	8	
102	1	0	0	0	0	0	0	0	
************************************************************************

 RESOURCE AVAILABILITIES 
	R 1	R 2	R 3	R 4	N 1	N 2
	24	20	19	23	1608	1713

************************************************************************
